
  32    4
  10   10   10   10

   0   0   0   0   0   6 2 4 5 10 13 18 
   3   1   1   1   0   2 14 3 
   9   0   6   4   1   1 6 
   5   0   8   4   1   5 24 17 16 15 9 
   1   5   4   3   0   4 15 11 9 8 
   2   0   2   3   3   3 16 15 7 
   1   3   6   0   3   2 17 9 
   8   6   4   2   0   5 31 25 23 19 16 
   1   4   3   6   0   4 31 25 22 12 
   7   3   2   0   4   1 11 
   7   5   0   7   3   2 16 12 
   5   0   4   3   8   3 23 20 19 
   1   3   6   5   0   3 23 20 19 
   2   0   3   4   4   2 29 16 
   8   0   4   4   4   4 30 29 22 21 
   1   2   5   0   5   3 30 22 20 
   9   0   1   3   4   4 31 29 28 21 
   9   3   6   0   6   2 21 19 
   1   8   0   4   4   3 29 27 26 
   1   5   4   5   0   1 21 
   8   0   4   7   3   2 27 26 
   2   0   5   1   5   2 28 26 
   2   0   5   4   3   2 30 28 
   3   1   0   3   5   2 28 26 
   7   2   0   7   8   1 29 
   5   3   0   3   3   1 32
   3   6   0   5   4   1 32
   9   7   2   3   0   1 32
   8   2   3   0   3   1 32
  10   4   0   5   4   1 32
   9   7   4   0   4   1 32
   0   0   0   0   0   0 
